217,45
16,248
293,299
131,222
13,138
66,33
265,241
136,251
140,35
112,301
70,335
384,135
398,300
149,359
172,270
128,157
100,127
129,218
396,193
222,331
102,102
47,330
193,290
104,224
211,191
64,168
151,286
328,230
375,153
106,227
281,52
223,354
272,350
89,314
204,387
233,127
11,211
354,84
94,59
274,213
289,11
121,377
319,372
67,109
114,18
362,138
44,383
162,167
227,177
240,151
